NAME : mtspf.pid4089.gtsp.133317805.tour
COMMENT : Length = 133317805
COMMENT : Found by LKH [Keld Helsgaun] Wed Jan 15 10:31:18 2025
TYPE : TOUR
DIMENSION : 85
TOUR_SECTION
1
57
54
55
56
60
61
58
59
17
14
15
16
85
82
83
84
80
81
78
79
2
64
65
62
63
74
75
76
77
20
21
18
19
40
41
38
39
69
66
67
68
30
31
32
33
9
6
7
8
50
51
52
53
4
11
12
13
10
70
71
72
73
43
44
45
42
5
27
28
29
26
24
25
22
23
49
46
47
48
3
34
35
36
37
-1
EOF
